
  12    4
  10   10   10   10

   0   0   0   0   0   4 2 4 5 6 
   6  10  10  10  10   1 3 
   8  10  10  10  10   2 11 7 
   3  10  10  10  10   2 11 7 
   2  10  10  10  10   2 11 7 
   3  10  10  10  10   2 11 7 
  10  10  10  10  10   2 9 8 
   8  10  10  10  10   1 10 
   3  10  10  10  10   1 10 
   7  10  10  10  10   1 12
  10  10  10  10  10   1 12
   0   0   0   0   0   0 
